
Gurobi 9.5.1 (linux64) logging started Tue Jul  5 11:53:03 2022

Set parameter LogFile to value "../results/logs/log_facebook_combined_17_250_2022_07_05_11_53.log"
Gurobi Optimizer version 9.5.1 build v9.5.1rc2 (linux64)
Thread count: 8 physical cores, 8 logical processors, using up to 8 threads
Optimize a model with 1686 rows, 8078 columns and 29396 nonzeros
Model fingerprint: 0xd191f5cc
Coefficient statistics:
  Matrix range     [1e+00, 2e+01]
  Objective range  [1e+00, 1e+00]
  Bounds range     [1e+00, 1e+00]
  RHS range        [1e+00, 2e+02]
Presolve removed 20 rows and 6480 columns
Presolve time: 0.01s
Presolved: 1666 rows, 1598 columns, 19295 nonzeros

Iteration    Objective       Primal Inf.    Dual Inf.      Time
       0    2.5620000e+03   4.335000e+02   0.000000e+00      0s
     695    2.5494301e+03   0.000000e+00   0.000000e+00      0s

Solved in 695 iterations and 0.02 seconds (0.02 work units)
Optimal objective  2.549430147e+03
